c generated by sgen3tocnf
c nLits = 639
c actual nVars = 213
c Command: sgen3tocnf 72 37 0 0 216 3 1 0 /dev/null
p cnf 216 285
-40 -61 0
-40 -199 0
-61 -199 0
-67 -208 0
-67 -34 0
-208 -34 0
-13 -82 0
-13 -181 0
-82 -181 0
-142 -200 0
-142 -70 0
-200 -70 0
-73 -49 0
-73 -41 0
-49 -41 0
-160 -97 0
-160 -106 0
-97 -106 0
-7 -121 0
-7 -22 0
-121 -22 0
-154 -163 0
-154 -196 0
-163 -196 0
-23 -143 0
-23 -172 0
-143 -172 0
-103 -187 0
-103 -50 0
-187 -50 0
-151 -1 0
-151 -136 0
-1 -136 0
-201 -55 0
-201 -178 0
-55 -178 0
-19 -16 0
-19 -4 0
-16 -4 0
-25 -173 0
-25 -46 0
-173 -46 0
-31 -35 0
-31 -193 0
-35 -193 0
-100 -214 0
-100 -112 0
-214 -112 0
-179 -161 0
-179 -104 0
-161 -104 0
-215 -88 0
-215 -56 0
-88 -56 0
-83 -68 0
-83 -85 0
-68 -85 0
-36 -8 0
-36 -14 0
-8 -14 0
-139 -190 0
-139 -52 0
-190 -52 0
-51 -113 0
-51 -76 0
-113 -76 0
-164 -184 0
-164 -2 0
-184 -2 0
-122 -118 0
-122 -157 0
-118 -157 0
-91 -182 0
-91 -162 0
-182 -162 0
-109 -32 0
-109 -58 0
-32 -58 0
-130 -155 0
-130 -92 0
-155 -92 0
-183 -194 0
-183 -148 0
-194 -148 0
-174 -124 0
-174 -166 0
-124 -166 0
-107 -167 0
-107 -89 0
-167 -89 0
-185 -137 0
-185 -10 0
-137 -10 0
-158 -140 0
-158 -131 0
-140 -131 0
-59 -205 0
-59 -28 0
-205 -28 0
-86 -20 0
-86 -119 0
-20 -119 0
-57 -64 0
-57 -37 0
-64 -37 0
-202 -133 0
-202 -145 0
-133 -145 0
-5 -42 0
-5 -156 0
-42 -156 0
-114 -87 0
-114 -203 0
-87 -203 0
-206 -11 0
-206 -43 0
-11 -43 0
-47 -204 0
-47 -74 0
-204 -74 0
-175 -79 0
-175 -170 0
-79 -170 0
-146 -15 0
-146 -17 0
-15 -17 0
-195 -105 0
-195 -65 0
-105 -65 0
-53 -6 0
-53 -186 0
-6 -186 0
-38 -127 0
-38 -111 0
-127 -111 0
-80 -54 0
-80 -123 0
-54 -123 0
-44 -60 0
-44 -115 0
-60 -115 0
-71 -77 0
-71 -188 0
-77 -188 0
-135 -108 0
-135 -165 0
-108 -165 0
-62 -132 0
-62 -26 0
-132 -26 0
-78 -24 0
-78 -152 0
-24 -152 0
-12 -153 0
-12 -69 0
-153 -69 0
-66 -75 0
-66 -21 0
-75 -21 0
-211 -27 0
-211 -141 0
-27 -141 0
-197 -149 0
-197 -33 0
-149 -33 0
-90 -72 0
-90 -101 0
-72 -101 0
-18 -116 0
-18 -216 0
-116 -216 0
-29 -94 0
-29 -212 0
-94 -212 0
-191 -176 0
-191 -128 0
-176 -128 0
-95 -180 0
-95 -144 0
-180 -144 0
-125 -45 0
-125 -98 0
-45 -98 0
-117 -171 0
-117 -96 0
-171 -96 0
-138 -30 0
-138 -192 0
-30 -192 0
-3 -102 0
-3 -9 0
-102 -9 0
-99 -48 0
-99 -177 0
-48 -177 0
-120 -39 0
-120 -81 0
-39 -81 0
-168 -213 0
-168 -209 0
-213 -209 0
-189 -198 0
-189 -126 0
-198 -126 0
-210 -147 0
-210 -207 0
-147 -207 0
-150 -159 0
-150 -84 0
-159 -84 0
-129 -93 0
-129 -63 0
-93 -63 0
3 1 2 0
5 6 4 0
7 8 9 0
12 11 10 0
13 15 14 0
18 16 17 0
19 20 21 0
23 24 22 0
25 27 26 0
29 30 28 0
31 32 33 0
36 35 34 0
38 39 37 0
40 42 41 0
44 45 43 0
47 48 46 0
51 49 50 0
53 54 52 0
57 55 56 0
59 60 58 0
62 61 63 0
66 64 65 0
67 68 69 0
71 72 70 0
73 75 74 0
78 77 76 0
80 79 81 0
83 82 84 0
86 87 85 0
90 88 89 0
91 93 92 0
95 94 96 0
99 97 98 0
100 102 101 0
103 105 104 0
107 108 106 0
109 111 0
114 113 112 0
117 116 115 0
120 118 119 0
122 121 123 0
125 124 126 0
129 127 128 0
130 132 131 0
135 133 0
138 137 136 0
139 140 141 0
142 143 144 0
146 147 145 0
150 149 148 0
151 153 152 0
154 155 156 0
158 159 157 0
160 161 162 0
164 163 165 0
168 167 166 0
171 170 0
174 173 172 0
175 176 177 0
179 180 178 0
183 182 181 0
185 184 186 0
189 187 188 0
191 190 192 0
195 194 193 0
197 198 196 0
201 200 199 0
202 204 203 0
206 205 207 0
210 208 209 0
211 213 212 0
215 214 216 0
